; benchmark generated from python API
(set-info :status unknown)
(declare-fun args_1_8 () (_ BitVec 8))
(declare-fun args_2_8 () (_ BitVec 8))
(declare-fun args_3_8 () (_ BitVec 8))
(declare-fun args_4_8 () (_ BitVec 8))
(declare-fun args_5_16 () (_ BitVec 16))
(declare-fun args_6_16 () (_ BitVec 16))
(declare-fun args_7_16 () (_ BitVec 16))
(declare-fun args_8_16 () (_ BitVec 16))
(declare-fun args_9_16 () (_ BitVec 16))
(declare-fun args_10_32 () (_ BitVec 32))
(declare-fun args_11_32 () (_ BitVec 32))
(declare-fun args_12_32 () (_ BitVec 32))
(declare-fun args_13_32 () (_ BitVec 32))
(declare-fun args_14_32 () (_ BitVec 32))
(declare-fun args_15_64 () (_ BitVec 64))
(declare-fun strlen_563_64 () (_ BitVec 64))
(declare-fun |filesize_file_161_??? _564_64| () (_ BitVec 64))
(assert
 (let ((?x58 ((_ extract 7 7) args_1_8)))
 (let (($x155689 (= (_ bv0 1) ?x58)))
 (let (($x112155 (not $x155689)))
 (let (($x50910 (= (_ bv64 8) args_1_8)))
 (let (($x157745 (not $x50910)))
 (or $x157745 $x112155)))))))
(assert
 (let ((?x146 ((_ extract 7 7) args_2_8)))
 (let (($x118646 (= (_ bv0 1) ?x146)))
 (let (($x143244 (not $x118646)))
 (let (($x127852 (= (_ bv64 8) args_2_8)))
 (let (($x147839 (not $x127852)))
 (or $x147839 $x143244)))))))
(assert
 (let ((?x189 ((_ extract 7 7) args_3_8)))
 (let (($x60056 (= (_ bv0 1) ?x189)))
 (let (($x111152 (not $x60056)))
 (let (($x46209 (= (_ bv64 8) args_3_8)))
 (let (($x58560 (not $x46209)))
 (or $x58560 $x111152)))))))
(assert
 (let ((?x227 ((_ extract 7 7) args_4_8)))
 (let (($x58705 (= (_ bv0 1) ?x227)))
 (let (($x123206 (not $x58705)))
 (let (($x80942 (= (_ bv64 8) args_4_8)))
 (let (($x137681 (not $x80942)))
 (or $x137681 $x123206)))))))
(assert
 (let ((?x244 ((_ extract 15 15) args_5_16)))
 (let (($x138122 (= (_ bv0 1) ?x244)))
 (let (($x135473 (not $x138122)))
 (let ((?x267 ((_ extract 15 8) args_5_16)))
 (let (($x322 (= (_ bv64 8) ?x267)))
 (let (($x137315 (not $x322)))
 (or $x137315 $x135473))))))))
(assert
 (let ((?x444 ((_ extract 15 15) args_6_16)))
 (let (($x117836 (= (_ bv0 1) ?x444)))
 (let (($x118220 (not $x117836)))
 (let ((?x341 ((_ extract 15 8) args_6_16)))
 (let (($x599 (= (_ bv64 8) ?x341)))
 (let (($x132923 (not $x599)))
 (or $x132923 $x118220))))))))
(assert
 (let ((?x826 ((_ extract 15 15) args_7_16)))
 (let (($x129391 (= (_ bv0 1) ?x826)))
 (let (($x53654 (not $x129391)))
 (let ((?x603 ((_ extract 15 8) args_7_16)))
 (let (($x1708 (= (_ bv64 8) ?x603)))
 (let (($x53899 (not $x1708)))
 (or $x53899 $x53654))))))))
(assert
 (let ((?x1836 ((_ extract 15 15) args_8_16)))
 (let (($x138631 (= (_ bv0 1) ?x1836)))
 (let (($x140616 (not $x138631)))
 (let ((?x1929 ((_ extract 15 8) args_8_16)))
 (let (($x4072 (= (_ bv64 8) ?x1929)))
 (let (($x119586 (not $x4072)))
 (or $x119586 $x140616))))))))
(assert
 (let ((?x4290 ((_ extract 15 15) args_9_16)))
 (let (($x132578 (= (_ bv0 1) ?x4290)))
 (let (($x124423 (not $x132578)))
 (let ((?x4071 ((_ extract 15 8) args_9_16)))
 (let (($x7222 (= (_ bv64 8) ?x4071)))
 (let (($x138799 (not $x7222)))
 (or $x138799 $x124423))))))))
(assert
 (let ((?x7446 ((_ extract 31 31) args_10_32)))
 (let (($x110892 (= (_ bv0 1) ?x7446)))
 (let (($x119061 (not $x110892)))
 (let ((?x7223 ((_ extract 31 24) args_10_32)))
 (let (($x7526 (= (_ bv64 8) ?x7223)))
 (let (($x140136 (not $x7526)))
 (or $x140136 $x119061))))))))
(assert
 (let ((?x10896 ((_ extract 31 31) args_11_32)))
 (let (($x139040 (= (_ bv0 1) ?x10896)))
 (let (($x140260 (not $x139040)))
 (let ((?x11007 ((_ extract 31 24) args_11_32)))
 (let (($x15482 (= (_ bv64 8) ?x11007)))
 (let (($x132114 (not $x15482)))
 (or $x132114 $x140260))))))))
(assert
 (let ((?x15369 ((_ extract 31 31) args_12_32)))
 (let (($x99592 (= (_ bv0 1) ?x15369)))
 (let (($x155001 (not $x99592)))
 (let ((?x15543 ((_ extract 31 24) args_12_32)))
 (let (($x20378 (= (_ bv64 8) ?x15543)))
 (let (($x148677 (not $x20378)))
 (or $x148677 $x155001))))))))
(assert
 (let ((?x20354 ((_ extract 31 31) args_13_32)))
 (let (($x151365 (= (_ bv0 1) ?x20354)))
 (let (($x137465 (not $x151365)))
 (let ((?x20248 ((_ extract 31 24) args_13_32)))
 (let (($x27172 (= (_ bv64 8) ?x20248)))
 (let (($x155840 (not $x27172)))
 (or $x155840 $x137465))))))))
(assert
 (let ((?x27058 ((_ extract 31 31) args_14_32)))
 (let (($x239739 (= (_ bv0 1) ?x27058)))
 (let (($x174553 (not $x239739)))
 (let ((?x27286 ((_ extract 31 24) args_14_32)))
 (let (($x50310 (= (_ bv64 8) ?x27286)))
 (let (($x192345 (not $x50310)))
 (or $x192345 $x174553))))))))
(assert
 (let ((?x47161 ((_ extract 63 56) args_15_64)))
 (= (_ bv64 8) ?x47161)))
(assert
 (let ((?x64839 ((_ extract 7 0) args_15_64)))
 (let (($x73078 (= (_ bv0 8) ?x64839)))
 (let ((?x74263 (ite $x73078 (_ bv576460752303357881 64) (_ bv576460752303357882 64))))
 (let ((?x77084 ((_ extract 15 8) args_15_64)))
 (let (($x74427 (= (_ bv0 8) ?x77084)))
 (let ((?x74192 (ite $x74427 (_ bv576460752303357880 64) ?x74263)))
 (let ((?x66434 ((_ extract 23 16) args_15_64)))
 (let (($x72062 (= (_ bv0 8) ?x66434)))
 (let ((?x74672 (ite $x72062 (_ bv576460752303357879 64) ?x74192)))
 (let ((?x69984 ((_ extract 31 24) args_15_64)))
 (let (($x78816 (= (_ bv0 8) ?x69984)))
 (let ((?x76848 (ite $x78816 (_ bv576460752303357878 64) ?x74672)))
 (let ((?x70184 ((_ extract 39 32) args_15_64)))
 (let (($x74466 (= (_ bv0 8) ?x70184)))
 (let ((?x76594 (ite $x74466 (_ bv576460752303357877 64) ?x76848)))
 (let ((?x69352 ((_ extract 47 40) args_15_64)))
 (let (($x72738 (= (_ bv0 8) ?x69352)))
 (let ((?x70367 (ite $x72738 (_ bv576460752303357876 64) ?x76594)))
 (let ((?x74174 ((_ extract 55 48) args_15_64)))
 (let (($x74857 (= (_ bv0 8) ?x74174)))
 (let ((?x74458 (ite $x74857 (_ bv576460752303357875 64) ?x70367)))
 (let ((?x68035 (bvsub ?x74458 (_ bv576460752303357875 64))))
 (= ?x68035 strlen_563_64))))))))))))))))))))))))
(assert
 (bvsgt (_ bv0 64) |filesize_file_161_??? _564_64|))
(maximize args_1_8)
(minimize args_10_32)
(maximize args_10_32)
(maximize args_11_32)
(minimize args_14_32)
(minimize args_8_16)
(minimize args_11_32)
(minimize args_2_8)
(maximize args_12_32)
(minimize args_15_64)
(minimize args_9_16)
(minimize args_7_16)
(minimize args_6_16)
(minimize args_1_8)
(minimize args_4_8)
(minimize args_12_32)
(maximize args_13_32)
(maximize args_5_16)
(maximize args_9_16)
(maximize args_14_32)
(maximize args_8_16)
(maximize args_2_8)
(minimize args_5_16)
(maximize strlen_563_64)
(maximize |filesize_file_161_??? _564_64|)
(maximize args_7_16)
(minimize args_3_8)
(maximize args_3_8)
(check-sat)
(get-objectives)
